NAME : XML100_1166_13
DIMENSION : 101
NB_CLUSTERS : 28
CLUSTERING_ALG : KMeans
CLUSTERING_PARAMS : k(27)
CLUSTERS
1 0
2 28 45 47 84 85
3 8 35 79 82
4 4 26 61 89 90 97
5 5 50 67 83
6 62 65
7 18 31 69 81
8 12 24 41 60 77 78 87
9 9 13 32 64 76
10 10 52 75
11 16 29 43 92
12 30 57
13 22 39
14 1 37 51 96 99
15 34 48 94
16 25 58 68 71 80 86
17 6 11 42 56
18 14 54 91
19 3 93
20 63 70 88 98
21 19 59 73
22 7 17 21 36 40
23 15 33 72 74
24 23 55
25 2 38 44 46
26 20 53
27 49 100
28 27 66 95
EOF